
  22    4
  10   10   10   10

   0   0   0   0   0   7 2 3 4 6 10 14 21 
   1  10  10  10  10   6 20 19 13 12 11 5 
   8  10  10  10  10   3 11 7 5 
   5  10  10  10  10   1 5 
   8  10  10  10  10   3 18 9 8 
   3  10  10  10  10   3 19 18 8 
   3  10  10  10  10   2 9 8 
   5  10  10  10  10   3 17 16 15 
   4  10  10  10  10   3 17 16 15 
   5  10  10  10  10   2 19 18 
   1  10  10  10  10   1 15 
   3  10  10  10  10   1 15 
  10  10  10  10  10   1 15 
   5  10  10  10  10   1 16 
   2  10  10  10  10   1 22
   3  10  10  10  10   1 22
   8  10  10  10  10   1 22
   3  10  10  10  10   1 22
   6  10  10  10  10   1 22
   3  10  10  10  10   1 22
   4  10  10  10  10   1 22
   0   0   0   0   0   0 
